(set-option :produce-models true)
(set-logic QF_LRA)
(set-info :notes | Strip-packing problem.|)
(declare-fun x0 () Real)
(declare-fun y0 () Real)
(declare-fun x1 () Real)
(declare-fun y1 () Real)
(declare-fun x2 () Real)
(declare-fun y2 () Real)
(declare-fun x3 () Real)
(declare-fun y3 () Real)
(declare-fun x4 () Real)
(declare-fun y4 () Real)
(declare-fun x5 () Real)
(declare-fun y5 () Real)
(declare-fun x6 () Real)
(declare-fun y6 () Real)
(declare-fun x7 () Real)
(declare-fun y7 () Real)
(declare-fun x8 () Real)
(declare-fun y8 () Real)
(declare-fun x9 () Real)
(declare-fun y9 () Real)
(declare-fun x10 () Real)
(declare-fun y10 () Real)
(declare-fun x11 () Real)
(declare-fun y11 () Real)
(declare-fun z () Real)
(declare-fun c () Real)
(assert (and (= c z) (and (>= x0 0) 
(and (>= y0 0) 
(and (>= x1 0) 
(and (>= y1 0) 
(and (>= x2 0) 
(and (>= y2 0) 
(and (>= x3 0) 
(and (>= y3 0) 
(and (>= x4 0) 
(and (>= y4 0) 
(and (>= x5 0) 
(and (>= y5 0) 
(and (>= x6 0) 
(and (>= y6 0) 
(and (>= x7 0) 
(and (>= y7 0) 
(and (>= x8 0) 
(and (>= y8 0) 
(and (>= x9 0) 
(and (>= y9 0) 
(and (>= x10 0) 
(and (>= y10 0) 
(and (>= x11 0) 
(and (>= y11 0) 
(and (>= z 0) 
(and (>= c 0) 
(and (<= (+ x0 0.3940601229) z) 
(and (<= 0.8432300707 y0) 
(and (<= y0 1.0) 
(and (<= x0 (- 3.7640868273 0.3940601229)) 
(and (>= x0 0) 
(and (<= (+ x1 0.4297251737) z) 
(and (<= 0.5285026643 y1) 
(and (<= y1 1.0) 
(and (<= x1 (- 3.7640868273 0.4297251737)) 
(and (>= x1 0) 
(and (<= (+ x2 0.5789553857) z) 
(and (<= 0.4350852702 y2) 
(and (<= y2 1.0) 
(and (<= x2 (- 3.7640868273 0.5789553857)) 
(and (>= x2 0) 
(and (<= (+ x3 0.8350510458) z) 
(and (<= 0.4187002617 y3) 
(and (<= y3 1.0) 
(and (<= x3 (- 3.7640868273 0.8350510458)) 
(and (>= x3 0) 
(and (<= (+ x4 0.4418595523) z) 
(and (<= 0.4111498723 y4) 
(and (<= y4 1.0) 
(and (<= x4 (- 3.7640868273 0.4418595523)) 
(and (>= x4 0) 
(and (<= (+ x5 0.4274177949) z) 
(and (<= 0.3689613839 y5) 
(and (<= y5 1.0) 
(and (<= x5 (- 3.7640868273 0.4274177949)) 
(and (>= x5 0) 
(and (<= (+ x6 0.3582056769) z) 
(and (<= 0.3663749114 y6) 
(and (<= y6 1.0) 
(and (<= x6 (- 3.7640868273 0.3582056769)) 
(and (>= x6 0) 
(and (<= (+ x7 0.5884475374) z) 
(and (<= 0.2564292425 y7) 
(and (<= y7 1.0) 
(and (<= x7 (- 3.7640868273 0.5884475374)) 
(and (>= x7 0) 
(and (<= (+ x8 0.3273895103) z) 
(and (<= 0.1911948167 y8) 
(and (<= y8 1.0) 
(and (<= x8 (- 3.7640868273 0.3273895103)) 
(and (>= x8 0) 
(and (<= (+ x9 0.9378475618) z) 
(and (<= 0.1379207967 y9) 
(and (<= y9 1.0) 
(and (<= x9 (- 3.7640868273 0.9378475618)) 
(and (>= x9 0) 
(and (<= (+ x10 0.1992184236) z) 
(and (<= 0.0331232184 y10) 
(and (<= y10 1.0) 
(and (<= x10 (- 3.7640868273 0.1992184236)) 
(and (>= x10 0) 
(and (<= (+ x11 0.1616689799) z) 
(and (<= 0.0040509099 y11) 
(and (<= y11 1.0) 
(and (<= x11 (- 3.7640868273 0.1616689799)) 
(and (>= x11 0) 
(and (<= c 3.7640868273) 
(and (or (<= (+ x0 0.3940601229) x1) (or (<= (+ x1 0.4297251737) x0) (or (>= (- y0 0.8432300707) y1) (or (>= (- y1 0.5285026643) y0))))) 
(and (or (<= (+ x0 0.3940601229) x2) (or (<= (+ x2 0.5789553857) x0) (or (>= (- y0 0.8432300707) y2) (or (>= (- y2 0.4350852702) y0))))) 
(and (or (<= (+ x0 0.3940601229) x3) (or (<= (+ x3 0.8350510458) x0) (or (>= (- y0 0.8432300707) y3) (or (>= (- y3 0.4187002617) y0))))) 
(and (or (<= (+ x0 0.3940601229) x4) (or (<= (+ x4 0.4418595523) x0) (or (>= (- y0 0.8432300707) y4) (or (>= (- y4 0.4111498723) y0))))) 
(and (or (<= (+ x0 0.3940601229) x5) (or (<= (+ x5 0.4274177949) x0) (or (>= (- y0 0.8432300707) y5) (or (>= (- y5 0.3689613839) y0))))) 
(and (or (<= (+ x0 0.3940601229) x6) (or (<= (+ x6 0.3582056769) x0) (or (>= (- y0 0.8432300707) y6) (or (>= (- y6 0.3663749114) y0))))) 
(and (or (<= (+ x0 0.3940601229) x7) (or (<= (+ x7 0.5884475374) x0) (or (>= (- y0 0.8432300707) y7) (or (>= (- y7 0.2564292425) y0))))) 
(and (or (<= (+ x0 0.3940601229) x8) (or (<= (+ x8 0.3273895103) x0) (or (>= (- y0 0.8432300707) y8) (or (>= (- y8 0.1911948167) y0))))) 
(and (or (<= (+ x0 0.3940601229) x9) (or (<= (+ x9 0.9378475618) x0) (or (>= (- y0 0.8432300707) y9) (or (>= (- y9 0.1379207967) y0))))) 
(and (or (<= (+ x0 0.3940601229) x10) (or (<= (+ x10 0.1992184236) x0) (or (>= (- y0 0.8432300707) y10) (or (>= (- y10 0.0331232184) y0))))) 
(and (or (<= (+ x0 0.3940601229) x11) (or (<= (+ x11 0.1616689799) x0) (or (>= (- y0 0.8432300707) y11) (or (>= (- y11 0.0040509099) y0))))) 
(and (or (<= (+ x1 0.4297251737) x2) (or (<= (+ x2 0.5789553857) x1) (or (>= (- y1 0.5285026643) y2) (or (>= (- y2 0.4350852702) y1))))) 
(and (or (<= (+ x1 0.4297251737) x3) (or (<= (+ x3 0.8350510458) x1) (or (>= (- y1 0.5285026643) y3) (or (>= (- y3 0.4187002617) y1))))) 
(and (or (<= (+ x1 0.4297251737) x4) (or (<= (+ x4 0.4418595523) x1) (or (>= (- y1 0.5285026643) y4) (or (>= (- y4 0.4111498723) y1))))) 
(and (or (<= (+ x1 0.4297251737) x5) (or (<= (+ x5 0.4274177949) x1) (or (>= (- y1 0.5285026643) y5) (or (>= (- y5 0.3689613839) y1))))) 
(and (or (<= (+ x1 0.4297251737) x6) (or (<= (+ x6 0.3582056769) x1) (or (>= (- y1 0.5285026643) y6) (or (>= (- y6 0.3663749114) y1))))) 
(and (or (<= (+ x1 0.4297251737) x7) (or (<= (+ x7 0.5884475374) x1) (or (>= (- y1 0.5285026643) y7) (or (>= (- y7 0.2564292425) y1))))) 
(and (or (<= (+ x1 0.4297251737) x8) (or (<= (+ x8 0.3273895103) x1) (or (>= (- y1 0.5285026643) y8) (or (>= (- y8 0.1911948167) y1))))) 
(and (or (<= (+ x1 0.4297251737) x9) (or (<= (+ x9 0.9378475618) x1) (or (>= (- y1 0.5285026643) y9) (or (>= (- y9 0.1379207967) y1))))) 
(and (or (<= (+ x1 0.4297251737) x10) (or (<= (+ x10 0.1992184236) x1) (or (>= (- y1 0.5285026643) y10) (or (>= (- y10 0.0331232184) y1))))) 
(and (or (<= (+ x1 0.4297251737) x11) (or (<= (+ x11 0.1616689799) x1) (or (>= (- y1 0.5285026643) y11) (or (>= (- y11 0.0040509099) y1))))) 
(and (or (<= (+ x2 0.5789553857) x3) (or (<= (+ x3 0.8350510458) x2) (or (>= (- y2 0.4350852702) y3) (or (>= (- y3 0.4187002617) y2))))) 
(and (or (<= (+ x2 0.5789553857) x4) (or (<= (+ x4 0.4418595523) x2) (or (>= (- y2 0.4350852702) y4) (or (>= (- y4 0.4111498723) y2))))) 
(and (or (<= (+ x2 0.5789553857) x5) (or (<= (+ x5 0.4274177949) x2) (or (>= (- y2 0.4350852702) y5) (or (>= (- y5 0.3689613839) y2))))) 
(and (or (<= (+ x2 0.5789553857) x6) (or (<= (+ x6 0.3582056769) x2) (or (>= (- y2 0.4350852702) y6) (or (>= (- y6 0.3663749114) y2))))) 
(and (or (<= (+ x2 0.5789553857) x7) (or (<= (+ x7 0.5884475374) x2) (or (>= (- y2 0.4350852702) y7) (or (>= (- y7 0.2564292425) y2))))) 
(and (or (<= (+ x2 0.5789553857) x8) (or (<= (+ x8 0.3273895103) x2) (or (>= (- y2 0.4350852702) y8) (or (>= (- y8 0.1911948167) y2))))) 
(and (or (<= (+ x2 0.5789553857) x9) (or (<= (+ x9 0.9378475618) x2) (or (>= (- y2 0.4350852702) y9) (or (>= (- y9 0.1379207967) y2))))) 
(and (or (<= (+ x2 0.5789553857) x10) (or (<= (+ x10 0.1992184236) x2) (or (>= (- y2 0.4350852702) y10) (or (>= (- y10 0.0331232184) y2))))) 
(and (or (<= (+ x2 0.5789553857) x11) (or (<= (+ x11 0.1616689799) x2) (or (>= (- y2 0.4350852702) y11) (or (>= (- y11 0.0040509099) y2))))) 
(and (or (<= (+ x3 0.8350510458) x4) (or (<= (+ x4 0.4418595523) x3) (or (>= (- y3 0.4187002617) y4) (or (>= (- y4 0.4111498723) y3))))) 
(and (or (<= (+ x3 0.8350510458) x5) (or (<= (+ x5 0.4274177949) x3) (or (>= (- y3 0.4187002617) y5) (or (>= (- y5 0.3689613839) y3))))) 
(and (or (<= (+ x3 0.8350510458) x6) (or (<= (+ x6 0.3582056769) x3) (or (>= (- y3 0.4187002617) y6) (or (>= (- y6 0.3663749114) y3))))) 
(and (or (<= (+ x3 0.8350510458) x7) (or (<= (+ x7 0.5884475374) x3) (or (>= (- y3 0.4187002617) y7) (or (>= (- y7 0.2564292425) y3))))) 
(and (or (<= (+ x3 0.8350510458) x8) (or (<= (+ x8 0.3273895103) x3) (or (>= (- y3 0.4187002617) y8) (or (>= (- y8 0.1911948167) y3))))) 
(and (or (<= (+ x3 0.8350510458) x9) (or (<= (+ x9 0.9378475618) x3) (or (>= (- y3 0.4187002617) y9) (or (>= (- y9 0.1379207967) y3))))) 
(and (or (<= (+ x3 0.8350510458) x10) (or (<= (+ x10 0.1992184236) x3) (or (>= (- y3 0.4187002617) y10) (or (>= (- y10 0.0331232184) y3))))) 
(and (or (<= (+ x3 0.8350510458) x11) (or (<= (+ x11 0.1616689799) x3) (or (>= (- y3 0.4187002617) y11) (or (>= (- y11 0.0040509099) y3))))) 
(and (or (<= (+ x4 0.4418595523) x5) (or (<= (+ x5 0.4274177949) x4) (or (>= (- y4 0.4111498723) y5) (or (>= (- y5 0.3689613839) y4))))) 
(and (or (<= (+ x4 0.4418595523) x6) (or (<= (+ x6 0.3582056769) x4) (or (>= (- y4 0.4111498723) y6) (or (>= (- y6 0.3663749114) y4))))) 
(and (or (<= (+ x4 0.4418595523) x7) (or (<= (+ x7 0.5884475374) x4) (or (>= (- y4 0.4111498723) y7) (or (>= (- y7 0.2564292425) y4))))) 
(and (or (<= (+ x4 0.4418595523) x8) (or (<= (+ x8 0.3273895103) x4) (or (>= (- y4 0.4111498723) y8) (or (>= (- y8 0.1911948167) y4))))) 
(and (or (<= (+ x4 0.4418595523) x9) (or (<= (+ x9 0.9378475618) x4) (or (>= (- y4 0.4111498723) y9) (or (>= (- y9 0.1379207967) y4))))) 
(and (or (<= (+ x4 0.4418595523) x10) (or (<= (+ x10 0.1992184236) x4) (or (>= (- y4 0.4111498723) y10) (or (>= (- y10 0.0331232184) y4))))) 
(and (or (<= (+ x4 0.4418595523) x11) (or (<= (+ x11 0.1616689799) x4) (or (>= (- y4 0.4111498723) y11) (or (>= (- y11 0.0040509099) y4))))) 
(and (or (<= (+ x5 0.4274177949) x6) (or (<= (+ x6 0.3582056769) x5) (or (>= (- y5 0.3689613839) y6) (or (>= (- y6 0.3663749114) y5))))) 
(and (or (<= (+ x5 0.4274177949) x7) (or (<= (+ x7 0.5884475374) x5) (or (>= (- y5 0.3689613839) y7) (or (>= (- y7 0.2564292425) y5))))) 
(and (or (<= (+ x5 0.4274177949) x8) (or (<= (+ x8 0.3273895103) x5) (or (>= (- y5 0.3689613839) y8) (or (>= (- y8 0.1911948167) y5))))) 
(and (or (<= (+ x5 0.4274177949) x9) (or (<= (+ x9 0.9378475618) x5) (or (>= (- y5 0.3689613839) y9) (or (>= (- y9 0.1379207967) y5))))) 
(and (or (<= (+ x5 0.4274177949) x10) (or (<= (+ x10 0.1992184236) x5) (or (>= (- y5 0.3689613839) y10) (or (>= (- y10 0.0331232184) y5))))) 
(and (or (<= (+ x5 0.4274177949) x11) (or (<= (+ x11 0.1616689799) x5) (or (>= (- y5 0.3689613839) y11) (or (>= (- y11 0.0040509099) y5))))) 
(and (or (<= (+ x6 0.3582056769) x7) (or (<= (+ x7 0.5884475374) x6) (or (>= (- y6 0.3663749114) y7) (or (>= (- y7 0.2564292425) y6))))) 
(and (or (<= (+ x6 0.3582056769) x8) (or (<= (+ x8 0.3273895103) x6) (or (>= (- y6 0.3663749114) y8) (or (>= (- y8 0.1911948167) y6))))) 
(and (or (<= (+ x6 0.3582056769) x9) (or (<= (+ x9 0.9378475618) x6) (or (>= (- y6 0.3663749114) y9) (or (>= (- y9 0.1379207967) y6))))) 
(and (or (<= (+ x6 0.3582056769) x10) (or (<= (+ x10 0.1992184236) x6) (or (>= (- y6 0.3663749114) y10) (or (>= (- y10 0.0331232184) y6))))) 
(and (or (<= (+ x6 0.3582056769) x11) (or (<= (+ x11 0.1616689799) x6) (or (>= (- y6 0.3663749114) y11) (or (>= (- y11 0.0040509099) y6))))) 
(and (or (<= (+ x7 0.5884475374) x8) (or (<= (+ x8 0.3273895103) x7) (or (>= (- y7 0.2564292425) y8) (or (>= (- y8 0.1911948167) y7))))) 
(and (or (<= (+ x7 0.5884475374) x9) (or (<= (+ x9 0.9378475618) x7) (or (>= (- y7 0.2564292425) y9) (or (>= (- y9 0.1379207967) y7))))) 
(and (or (<= (+ x7 0.5884475374) x10) (or (<= (+ x10 0.1992184236) x7) (or (>= (- y7 0.2564292425) y10) (or (>= (- y10 0.0331232184) y7))))) 
(and (or (<= (+ x7 0.5884475374) x11) (or (<= (+ x11 0.1616689799) x7) (or (>= (- y7 0.2564292425) y11) (or (>= (- y11 0.0040509099) y7))))) 
(and (or (<= (+ x8 0.3273895103) x9) (or (<= (+ x9 0.9378475618) x8) (or (>= (- y8 0.1911948167) y9) (or (>= (- y9 0.1379207967) y8))))) 
(and (or (<= (+ x8 0.3273895103) x10) (or (<= (+ x10 0.1992184236) x8) (or (>= (- y8 0.1911948167) y10) (or (>= (- y10 0.0331232184) y8))))) 
(and (or (<= (+ x8 0.3273895103) x11) (or (<= (+ x11 0.1616689799) x8) (or (>= (- y8 0.1911948167) y11) (or (>= (- y11 0.0040509099) y8))))) 
(and (or (<= (+ x9 0.9378475618) x10) (or (<= (+ x10 0.1992184236) x9) (or (>= (- y9 0.1379207967) y10) (or (>= (- y10 0.0331232184) y9))))) 
(and (or (<= (+ x9 0.9378475618) x11) (or (<= (+ x11 0.1616689799) x9) (or (>= (- y9 0.1379207967) y11) (or (>= (- y11 0.0040509099) y9))))) 
(and (or (<= (+ x10 0.1992184236) x11) (or (<= (+ x11 0.1616689799) x10) (or (>= (- y10 0.0331232184) y11) (or (>= (- y11 0.0040509099) y10))))) )))))))))))))))))))))))))))))))))))))))))))))))))))))))))))))))))))))))))))))))))))))))))))))))))))))))))))))))))))))))))))))))))))))))))))))))))))))))))))
(minimize c)
(check-sat)
(get-objectives)
(exit)
